NAME          pyramid
*   Maximum: 6000 
*   Minimum: 0
*   ieqs = [[0,1,0,0],[0,0,1,0,],[0,-1,0,1],[0,0,-1,1],[200,0,0,-1,]])
ROWS
 L  0
 L  1
 L  2
 N  c
COLUMNS
    x0        0         1.             c         -150.
    x1        1         1.             c         -100.
    x2        0         -1.            1         -1.
    x2        2         1.             c         -50.
RHS
    b         2         200.
ENDATA
